89436
[0, 1816, 1815, 1814, 1813, 1812, 1811, 1810, 1809, 1805, 1806, 1807, 1808, 4, 3, 5, 2, 6, 1, 7, 8, 9, 10, 12, 13, 14, 15, 16, 17, 18, 19, 20, 21, 22, 23, 25, 26, 27, 28, 29, 30, 31, 32, 33, 34, 38, 46, 47, 48, 39, 40, 41, 43, 44, 51, 60, 61, 62, 52, 53, 55, 56, 57, 58, 59, 63, 64, 70, 71, 72, 73, 74, 75, 77, 80, 90, 91, 104, 105, 106, 107, 108, 109, 111, 112, 110, 103, 102, 101, 100, 99, 98, 92, 93, 94, 95, 96, 97, 82, 83, 84, 89, 88, 81, 78, 79, 85, 86, 87, 76, 65, 66, 67, 69, 68, 54, 45, 50, 49, 42, 35, 36, 37, 24, 11, 1804, 1803, 1802, 1787, 1786, 1785, 1540, 1539, 1538, 1535, 1534, 1536, 1776, 1774, 1775, 1777, 1779, 1784, 1778, 1780, 1781, 1783, 1782, 1541, 1537, 1543, 1544, 1546, 1531, 1530, 1527, 1524, 1532, 1533, 1523, 1525, 1522, 1526, 1521, 1520, 1518, 1516, 1512, 1517, 1519, 1513, 1515, 1506, 1514, 1505, 1497, 1507, 1508, 1509, 1510, 1511, 1498, 1499, 1491, 1575, 1576, 1577, 1578, 1579, 1580, 1581, 1582, 1583, 1584, 1585, 1589, 1588, 1586, 1594, 1593, 1592, 1591, 1590, 1587, 1496, 1492, 1493, 1565, 1566, 1567, 1568, 1569, 1570, 1571, 1572, 1573, 1574, 1561, 1495, 1494, 1564, 1563, 1562, 1504, 1503, 1502, 1501, 1500, 1490, 1488, 1489, 1486, 1487, 1485, 1484, 1483, 1481, 1480, 1478, 1479, 1482, 1477, 1476, 1474, 1473, 1470, 1447, 1466, 1465, 1464, 1463, 1462, 1456, 1455, 1444, 1443, 1442, 1441, 1440, 1439, 1438, 1437, 1436, 1435, 469, 468, 1421, 1422, 1426, 1427, 1428, 1429, 1430, 1425, 1424, 1423, 1434, 1433, 1432, 1431, 1226, 1227, 1228, 1229, 1230, 1231, 1232, 1246, 1247, 1233, 1234, 1235, 1236, 1237, 1238, 1239, 1248, 1243, 1242, 1241, 1240, 1414, 1413, 1402, 1403, 1404, 1405, 1406, 1407, 1415, 1416, 1417, 1418, 1419, 1420, 1412, 1411, 1410, 1409, 1408, 447, 448, 449, 450, 444, 452, 453, 454, 437, 431, 432, 433, 434, 435, 436, 407, 406, 405, 403, 401, 399, 394, 398, 400, 409, 419, 420, 421, 422, 410, 411, 413, 424, 425, 426, 427, 428, 429, 430, 414, 415, 416, 417, 418, 423, 412, 402, 404, 408, 395, 397, 396, 383, 385, 382, 379, 381, 384, 371, 368, 370, 380, 367, 366, 372, 373, 374, 375, 376, 377, 378, 1028, 1029, 1030, 1031, 1032, 1033, 1034, 1035, 365, 354, 353, 350, 342, 340, 338, 335, 339, 341, 351, 352, 355, 336, 337, 1069, 1068, 1067, 1070, 326, 324, 322, 320, 317, 315, 316, 313, 314, 302, 300, 298, 299, 307, 308, 309, 310, 311, 312, 306, 305, 304, 295, 294, 292, 289, 291, 288, 290, 293, 296, 297, 301, 303, 318, 321, 319, 1076, 1077, 1078, 1079, 1080, 1086, 1085, 1087, 1104, 1105, 1106, 1107, 1108, 1109, 1110, 1111, 1112, 1113, 1114, 1103, 1102, 1101, 1100, 1099, 1117, 1116, 1115, 1088, 1095, 1089, 1321, 1322, 1323, 1324, 1325, 1326, 1327, 1320, 1319, 1318, 1317, 1310, 1309, 1308, 1307, 1306, 1311, 1312, 1313, 1314, 1315, 1316, 1333, 1334, 1335, 1305, 1304, 1303, 1127, 1128, 1134, 1135, 1136, 1141, 1142, 1137, 1138, 1139, 1140, 1298, 1299, 1300, 1301, 1302, 1143, 1157, 1159, 1158, 1160, 1163, 1164, 1166, 1649, 1165, 1650, 1648, 1651, 1647, 1652, 1656, 1653, 1645, 1646, 1644, 1654, 1655, 1659, 1660, 1673, 238, 239, 256, 255, 263, 264, 265, 266, 267, 271, 272, 281, 282, 283, 284, 285, 286, 287, 273, 274, 275, 276, 277, 278, 280, 279, 254, 253, 252, 251, 250, 257, 258, 259, 260, 261, 262, 268, 269, 270, 249, 242, 243, 241, 131, 130, 129, 128, 125, 127, 114, 115, 116, 118, 117, 113, 124, 126, 244, 245, 246, 247, 248, 123, 121, 119, 120, 122, 237, 236, 235, 234, 233, 240, 232, 231, 230, 229, 228, 134, 224, 225, 227, 226, 1684, 1683, 1682, 1681, 1680, 1676, 1687, 1686, 1685, 1677, 1678, 1679, 1675, 135, 136, 138, 139, 223, 140, 217, 218, 219, 1688, 1689, 1690, 1691, 1692, 1693, 1694, 1695, 1696, 1697, 1698, 1699, 1700, 141, 142, 144, 145, 146, 212, 211, 210, 209, 147, 149, 152, 154, 158, 159, 160, 161, 190, 191, 192, 162, 164, 167, 185, 184, 183, 182, 168, 170, 172, 173, 174, 175, 176, 177, 171, 181, 180, 179, 178, 169, 189, 188, 187, 186, 165, 166, 163, 193, 194, 195, 1727, 1728, 1729, 1730, 1731, 1732, 1733, 1734, 1735, 1736, 1737, 1738, 1739, 157, 155, 156, 198, 197, 196, 153, 203, 202, 201, 200, 199, 1714, 1715, 1716, 1717, 1718, 1719, 1724, 1725, 1726, 1720, 1721, 1723, 1722, 151, 150, 204, 205, 206, 207, 208, 1710, 1709, 1708, 1707, 1706, 1701, 1713, 1712, 1711, 1702, 1703, 1705, 1704, 148, 213, 214, 215, 216, 143, 222, 221, 220, 137, 133, 132, 1674, 1662, 1670, 1672, 1671, 1657, 1658, 1661, 1663, 1668, 1664, 1667, 1669, 1665, 1666, 1150, 1161, 1162, 1167, 1156, 1155, 1153, 1144, 1152, 1154, 1145, 1147, 1151, 1146, 1148, 1149, 1328, 1329, 1330, 1331, 1332, 1370, 1371, 1372, 1373, 1374, 1375, 1376, 1377, 1361, 1362, 1363, 1364, 1365, 1366, 1367, 1368, 1369, 1343, 1344, 1345, 1346, 1358, 1359, 1360, 1391, 1390, 1389, 1388, 1385, 1386, 1396, 1395, 1394, 1393, 1392, 1387, 1384, 1383, 1282, 1283, 1284, 1285, 1262, 1263, 1269, 1270, 1271, 1272, 1192, 1193, 1198, 1199, 1200, 1201, 1202, 1204, 1250, 1249, 1205, 1209, 1216, 1217, 1218, 1210, 1214, 1595, 1596, 1597, 1598, 1215, 1211, 1212, 1213, 1206, 1207, 1208, 1203, 1251, 1252, 1253, 1197, 1194, 1195, 1196, 1254, 1255, 1256, 1257, 1258, 1259, 1261, 1260, 1397, 1398, 1399, 1400, 1401, 1268, 1267, 1266, 1265, 1264, 1191, 1286, 1277, 1276, 1275, 1274, 1273, 1180, 1181, 1190, 1182, 1183, 1189, 1188, 1184, 1619, 1187, 1186, 1185, 1622, 1623, 1624, 1615, 1613, 1609, 1610, 1611, 1601, 1600, 1599, 1602, 1603, 1604, 1605, 1606, 1607, 1608, 1616, 1617, 1618, 1612, 1614, 1627, 1625, 1626, 1630, 1631, 1634, 1635, 1638, 1637, 1633, 1636, 1629, 1632, 1620, 1621, 1628, 1178, 1176, 1179, 1175, 1173, 1174, 1177, 1168, 1169, 1172, 1170, 1171, 1641, 1642, 1640, 1643, 1639, 1347, 1357, 1356, 1355, 1378, 1379, 1297, 1296, 1295, 1294, 1293, 1292, 1278, 1287, 1288, 1279, 1280, 1281, 1380, 1381, 1382, 1291, 1290, 1289, 1090, 1091, 1094, 1093, 1092, 1096, 1097, 1098, 1118, 1119, 1120, 1121, 1122, 1126, 1125, 1124, 1123, 1129, 1130, 1131, 1133, 1132, 323, 325, 327, 1072, 328, 1073, 1074, 1075, 1081, 1082, 1083, 1084, 329, 330, 331, 334, 333, 332, 356, 357, 1336, 1337, 1338, 1339, 1340, 1341, 1342, 358, 359, 363, 362, 361, 360, 386, 387, 1348, 1349, 1350, 1351, 1352, 1353, 1354, 388, 389, 390, 393, 392, 391, 1071, 1065, 1063, 1061, 1062, 1059, 1056, 1055, 343, 344, 345, 346, 347, 348, 349, 1054, 1053, 1052, 1051, 1050, 1049, 1057, 1058, 968, 966, 964, 962, 960, 958, 956, 957, 954, 949, 948, 936, 937, 938, 939, 940, 941, 942, 947, 946, 945, 944, 935, 943, 955, 952, 953, 950, 951, 905, 903, 901, 902, 904, 906, 907, 908, 931, 930, 929, 928, 927, 926, 922, 923, 924, 925, 934, 933, 932, 921, 920, 959, 961, 963, 965, 967, 970, 971, 1044, 1043, 1042, 1041, 1040, 1039, 1036, 1037, 1038, 1048, 1047, 1046, 1045, 986, 987, 993, 1021, 1022, 1023, 1024, 1025, 1026, 1027, 994, 1020, 992, 995, 997, 1007, 1019, 991, 990, 989, 988, 985, 984, 983, 982, 973, 972, 975, 976, 977, 978, 981, 980, 979, 974, 996, 1006, 998, 999, 1018, 1017, 1015, 1010, 1016, 1012, 648, 649, 650, 651, 652, 1000, 653, 673, 674, 654, 655, 656, 657, 659, 663, 664, 665, 666, 667, 668, 669, 799, 800, 801, 802, 803, 804, 918, 919, 660, 661, 662, 670, 671, 672, 658, 1001, 1002, 1003, 1004, 1005, 645, 644, 643, 642, 641, 640, 639, 638, 637, 630, 631, 632, 633, 636, 635, 634, 676, 677, 678, 679, 680, 681, 682, 686, 687, 683, 684, 693, 695, 697, 694, 696, 783, 769, 768, 762, 751, 767, 761, 760, 759, 752, 750, 754, 755, 756, 757, 758, 743, 734, 742, 744, 745, 746, 747, 748, 749, 735, 733, 736, 737, 738, 741, 740, 739, 712, 729, 728, 731, 727, 726, 722, 724, 725, 732, 723, 713, 715, 716, 717, 721, 720, 719, 718, 714, 730, 711, 753, 763, 764, 765, 766, 770, 773, 774, 771, 772, 775, 790, 791, 792, 793, 794, 813, 795, 796, 797, 798, 807, 806, 805, 812, 811, 810, 809, 808, 839, 840, 841, 848, 846, 853, 854, 855, 856, 857, 858, 865, 866, 867, 909, 910, 911, 912, 913, 914, 915, 916, 917, 868, 842, 849, 850, 885, 886, 887, 888, 889, 890, 891, 876, 877, 878, 879, 880, 881, 882, 883, 884, 892, 893, 894, 895, 896, 897, 898, 899, 900, 843, 851, 873, 845, 844, 852, 872, 874, 871, 870, 859, 875, 860, 869, 861, 864, 862, 863, 838, 837, 836, 825, 826, 827, 828, 829, 830, 831, 814, 815, 816, 817, 818, 819, 820, 821, 822, 835, 834, 833, 832, 824, 823, 847, 784, 785, 786, 787, 788, 789, 776, 777, 778, 779, 780, 781, 782, 685, 688, 675, 628, 629, 617, 689, 690, 701, 702, 703, 704, 705, 706, 691, 692, 700, 699, 698, 611, 612, 616, 615, 614, 613, 458, 459, 463, 575, 578, 579, 584, 574, 576, 577, 580, 581, 583, 565, 562, 563, 561, 558, 560, 567, 564, 566, 557, 556, 553, 518, 519, 552, 521, 522, 524, 525, 515, 512, 514, 516, 526, 511, 508, 510, 513, 507, 504, 505, 499, 496, 498, 473, 471, 472, 501, 502, 470, 475, 476, 481, 478, 479, 480, 484, 482, 483, 474, 477, 500, 503, 506, 509, 495, 492, 494, 497, 491, 488, 490, 493, 487, 486, 1451, 485, 489, 523, 528, 531, 532, 533, 536, 540, 542, 543, 537, 539, 538, 535, 545, 541, 544, 520, 549, 551, 527, 529, 530, 548, 534, 546, 547, 550, 517, 554, 571, 572, 570, 573, 555, 569, 559, 568, 582, 595, 596, 597, 598, 599, 602, 606, 707, 708, 607, 608, 609, 610, 710, 709, 603, 604, 605, 600, 601, 464, 465, 466, 467, 588, 587, 586, 585, 594, 460, 461, 462, 589, 590, 591, 592, 593, 457, 618, 619, 620, 621, 622, 623, 627, 626, 625, 624, 647, 646, 1013, 1011, 1009, 1014, 1008, 969, 1060, 1064, 1066, 364, 369, 438, 439, 440, 441, 442, 443, 445, 446, 451, 455, 456, 1244, 1245, 1225, 1224, 1223, 1222, 1221, 1220, 1219, 1445, 1446, 1457, 1458, 1459, 1461, 1460, 1472, 1475, 1469, 1467, 1468, 1471, 1448, 1454, 1449, 1453, 1452, 1450, 1528, 1529, 1548, 1551, 1553, 1773, 1550, 1557, 1552, 1556, 1554, 1768, 1555, 1558, 1760, 1761, 1762, 1754, 1755, 1756, 1757, 1740, 1752, 1751, 1750, 1741, 1742, 1743, 1744, 1745, 1746, 1747, 1748, 1749, 1759, 1758, 1753, 1559, 1560, 1769, 1767, 1766, 1764, 1771, 1770, 1772, 1763, 1765, 1788, 1789, 1792, 1793, 1794, 1795, 1796, 1797, 1798, 1790, 1791, 1801, 1800, 1799, 1549, 1545, 1542, 1547]
